NAME : Euclidean Random Tour : n = 100, sample = 21 
COMMENT : Coordinates are generated uniformly sampled from [0, 100000] x [0, 100000] 
DIMENSION : 100 
EDGE_WEIGHT_TYPE : EUC_2D 
TOUR_SECTION 
1
77
45
29
78
46
36
2
88
43
18
81
80
65
99
40
66
62
27
25
91
76
82
92
39
21
52
71
48
34
83
84
4
68
15
97
17
94
51
12
16
10
30
79
75
95
100
93
44
35
70
64
23
67
63
54
5
85
56
33
61
87
96
50
59
28
38
14
3
74
55
98
58
41
13
37
60
19
24
32
26
42
11
22
73
90
86
72
53
49
8
89
6
69
7
9
57
31
47
20
-1
